
Gurobi 5.6.3 (mac64) logging started Thu Aug 28 00:08:02 2014


Gurobi 5.6.3 (mac64) logging started Thu Aug 28 16:32:20 2014


Gurobi 5.6.3 (mac64) logging started Fri Aug 29 14:09:26 2014


Gurobi 5.6.3 (mac64) logging started Fri Aug 29 14:52:49 2014


Gurobi 5.6.3 (mac64) logging started Fri Aug 29 14:52:56 2014


Gurobi 5.6.3 (mac64) logging started Fri Aug 29 14:53:36 2014


Gurobi 5.6.3 (mac64) logging started Fri Aug 29 14:53:46 2014


Gurobi 5.6.3 (mac64) logging started Fri Aug 29 14:57:43 2014


Gurobi 5.6.3 (mac64) logging started Fri Aug 29 15:16:03 2014


Gurobi 5.6.3 (mac64) logging started Fri Aug 29 15:19:35 2014


Gurobi 5.6.3 (mac64) logging started Fri Aug 29 15:19:43 2014


Gurobi 5.6.3 (mac64) logging started Fri Aug 29 15:20:09 2014


Gurobi 5.6.3 (mac64) logging started Fri Aug 29 16:47:11 2014


Gurobi 5.6.3 (mac64) logging started Tue Sep  2 11:09:23 2014


Gurobi 5.6.3 (mac64) logging started Tue Sep  2 11:11:03 2014


Gurobi 5.6.3 (mac64) logging started Tue Sep  2 11:12:09 2014


Gurobi 5.6.3 (mac64) logging started Tue Sep  2 11:17:36 2014


Gurobi 5.6.3 (mac64) logging started Tue Sep  2 11:25:22 2014


Gurobi 5.6.3 (mac64) logging started Tue Sep  2 11:28:00 2014


Gurobi 5.6.3 (mac64) logging started Tue Sep  2 11:34:09 2014


Gurobi 5.6.3 (mac64) logging started Tue Sep  2 11:36:26 2014


Gurobi 5.6.3 (mac64) logging started Tue Sep  2 11:38:42 2014


Gurobi 5.6.3 (mac64) logging started Tue Sep  2 11:39:10 2014


Gurobi 5.6.3 (mac64) logging started Tue Sep  2 11:41:25 2014


Gurobi 5.6.3 (mac64) logging started Tue Sep  2 11:42:11 2014


Gurobi 5.6.3 (mac64) logging started Tue Sep  2 11:42:18 2014


Gurobi 5.6.3 (mac64) logging started Tue Sep  2 11:43:18 2014


Gurobi 5.6.3 (mac64) logging started Tue Sep  2 11:47:26 2014


Gurobi 5.6.3 (mac64) logging started Tue Sep  2 11:55:06 2014


Gurobi 5.6.3 (mac64) logging started Tue Sep  2 12:00:46 2014


Gurobi 5.6.3 (mac64) logging started Tue Sep  2 12:00:53 2014


Gurobi 5.6.3 (mac64) logging started Tue Sep  2 14:11:18 2014


Gurobi 5.6.3 (mac64) logging started Tue Sep  2 14:12:02 2014


Gurobi 5.6.3 (mac64) logging started Tue Sep  2 14:31:05 2014


Gurobi 5.6.3 (mac64) logging started Tue Sep  2 14:31:29 2014

